p cnf 64 336
1 2 3 4 0
5 6 7 8 0
9 10 11 12 0
13 14 15 16 0
17 18 19 20 0
21 22 23 24 0
25 26 27 28 0
29 30 31 32 0
33 34 35 36 0
37 38 39 40 0
41 42 43 44 0
45 46 47 48 0
49 50 51 52 0
53 54 55 56 0
57 58 59 60 0
61 62 63 64 0
-1 -2 0
-1 -3 0
-1 -4 0
-2 -3 0
-2 -4 0
-3 -4 0
-5 -6 0
-5 -7 0
-5 -8 0
-6 -7 0
-6 -8 0
-7 -8 0
-9 -10 0
-9 -11 0
-9 -12 0
-10 -11 0
-10 -12 0
-11 -12 0
-13 -14 0
-13 -15 0
-13 -16 0
-14 -15 0
-14 -16 0
-15 -16 0
-17 -18 0
-17 -19 0
-17 -20 0
-18 -19 0
-18 -20 0
-19 -20 0
-21 -22 0
-21 -23 0
-21 -24 0
-22 -23 0
-22 -24 0
-23 -24 0
-25 -26 0
-25 -27 0
-25 -28 0
-26 -27 0
-26 -28 0
-27 -28 0
-29 -30 0
-29 -31 0
-29 -32 0
-30 -31 0
-30 -32 0
-31 -32 0
-33 -34 0
-33 -35 0
-33 -36 0
-34 -35 0
-34 -36 0
-35 -36 0
-37 -38 0
-37 -39 0
-37 -40 0
-38 -39 0
-38 -40 0
-39 -40 0
-41 -42 0
-41 -43 0
-41 -44 0
-42 -43 0
-42 -44 0
-43 -44 0
-45 -46 0
-45 -47 0
-45 -48 0
-46 -47 0
-46 -48 0
-47 -48 0
-49 -50 0
-49 -51 0
-49 -52 0
-50 -51 0
-50 -52 0
-51 -52 0
-53 -54 0
-53 -55 0
-53 -56 0
-54 -55 0
-54 -56 0
-55 -56 0
-57 -58 0
-57 -59 0
-57 -60 0
-58 -59 0
-58 -60 0
-59 -60 0
-61 -62 0
-61 -63 0
-61 -64 0
-62 -63 0
-62 -64 0
-63 -64 0
-5 -1 0
-6 -2 0
-7 -3 0
-8 -4 0
-9 -1 0
-10 -2 0
-11 -3 0
-12 -4 0
-9 -5 0
-10 -6 0
-11 -7 0
-12 -8 0
-13 -1 0
-14 -2 0
-15 -3 0
-16 -4 0
-13 -5 0
-14 -6 0
-15 -7 0
-16 -8 0
-13 -9 0
-14 -10 0
-15 -11 0
-16 -12 0
-17 -1 0
-18 -2 0
-19 -3 0
-20 -4 0
-17 -5 0
-18 -6 0
-19 -7 0
-20 -8 0
-21 -1 0
-22 -2 0
-23 -3 0
-24 -4 0
-21 -5 0
-22 -6 0
-23 -7 0
-24 -8 0
-21 -17 0
-22 -18 0
-23 -19 0
-24 -20 0
-25 -9 0
-26 -10 0
-27 -11 0
-28 -12 0
-25 -13 0
-26 -14 0
-27 -15 0
-28 -16 0
-25 -17 0
-26 -18 0
-27 -19 0
-28 -20 0
-25 -21 0
-26 -22 0
-27 -23 0
-28 -24 0
-29 -9 0
-30 -10 0
-31 -11 0
-32 -12 0
-29 -13 0
-30 -14 0
-31 -15 0
-32 -16 0
-29 -17 0
-30 -18 0
-31 -19 0
-32 -20 0
-29 -21 0
-30 -22 0
-31 -23 0
-32 -24 0
-29 -25 0
-30 -26 0
-31 -27 0
-32 -28 0
-33 -1 0
-34 -2 0
-35 -3 0
-36 -4 0
-33 -17 0
-34 -18 0
-35 -19 0
-36 -20 0
-37 -5 0
-38 -6 0
-39 -7 0
-40 -8 0
-37 -21 0
-38 -22 0
-39 -23 0
-40 -24 0
-37 -33 0
-38 -34 0
-39 -35 0
-40 -36 0
-41 -9 0
-42 -10 0
-43 -11 0
-44 -12 0
-41 -25 0
-42 -26 0
-43 -27 0
-44 -28 0
-41 -33 0
-42 -34 0
-43 -35 0
-44 -36 0
-41 -37 0
-42 -38 0
-43 -39 0
-44 -40 0
-45 -13 0
-46 -14 0
-47 -15 0
-48 -16 0
-45 -29 0
-46 -30 0
-47 -31 0
-48 -32 0
-45 -33 0
-46 -34 0
-47 -35 0
-48 -36 0
-45 -37 0
-46 -38 0
-47 -39 0
-48 -40 0
-45 -41 0
-46 -42 0
-47 -43 0
-48 -44 0
-49 -1 0
-50 -2 0
-51 -3 0
-52 -4 0
-49 -17 0
-50 -18 0
-51 -19 0
-52 -20 0
-49 -33 0
-50 -34 0
-51 -35 0
-52 -36 0
-49 -37 0
-50 -38 0
-51 -39 0
-52 -40 0
-53 -5 0
-54 -6 0
-55 -7 0
-56 -8 0
-53 -21 0
-54 -22 0
-55 -23 0
-56 -24 0
-53 -33 0
-54 -34 0
-55 -35 0
-56 -36 0
-53 -37 0
-54 -38 0
-55 -39 0
-56 -40 0
-53 -49 0
-54 -50 0
-55 -51 0
-56 -52 0
-57 -9 0
-58 -10 0
-59 -11 0
-60 -12 0
-57 -25 0
-58 -26 0
-59 -27 0
-60 -28 0
-57 -41 0
-58 -42 0
-59 -43 0
-60 -44 0
-57 -45 0
-58 -46 0
-59 -47 0
-60 -48 0
-57 -49 0
-58 -50 0
-59 -51 0
-60 -52 0
-57 -53 0
-58 -54 0
-59 -55 0
-60 -56 0
-61 -13 0
-62 -14 0
-63 -15 0
-64 -16 0
-61 -29 0
-62 -30 0
-63 -31 0
-64 -32 0
-61 -41 0
-62 -42 0
-63 -43 0
-64 -44 0
-61 -45 0
-62 -46 0
-63 -47 0
-64 -48 0
-61 -49 0
-62 -50 0
-63 -51 0
-64 -52 0
-61 -53 0
-62 -54 0
-63 -55 0
-64 -56 0
-61 -57 0
-62 -58 0
-63 -59 0
-64 -60 0
